p cnf 134 482
54 74 131 0
44 46 0
27 41 59 0
33 65 0
35 40 56 0
82 85 0
69 70 0
61 89 106 129 0
76 92 95 0
43 50 55 75 100 0
32 45 62 0
12 31 68 0
9 25 30 0
21 23 42 49 0
19 38 53 0
17 34 0
16 29 0
15 20 0
11 13 121 0
8 26 58 0
24 48 0
39 77 115 0
18 78 0
36 79 81 0
83 86 87 0
90 93 94 0
96 98 0
51 101 0
37 64 103 104 0
57 91 105 0
60 108 109 0
102 111 112 0
-61 -92 0
-61 -113 0
-92 -113 0
-9 -114 0
-23 -114 0
-9 -23 0
-72 -90 0
-72 -96 0
-90 -96 0
-61 -114 0
-61 -72 0
-72 -114 0
-9 -92 0
-90 -92 0
-9 -90 0
-23 -113 0
-96 -113 0
-23 -96 0
-46 -74 0
-10 -74 0
-74 -116 0
-10 -46 0
-46 -116 0
-10 -116 0
-40 -69 0
-40 -76 0
-40 -43 0
-69 -76 0
-43 -69 0
-43 -76 0
-71 -79 0
-79 -93 0
-51 -79 0
-71 -93 0
-51 -71 0
-51 -93 0
-103 -117 0
-103 -118 0
-103 -111 0
-117 -118 0
-111 -117 0
-111 -118 0
-40 -74 0
-74 -79 0
-74 -103 0
-40 -79 0
-40 -103 0
-79 -103 0
-46 -69 0
-46 -71 0
-46 -117 0
-69 -71 0
-69 -117 0
-71 -117 0
-10 -76 0
-10 -93 0
-10 -118 0
-76 -93 0
-76 -118 0
-93 -118 0
-43 -116 0
-51 -116 0
-111 -116 0
-43 -51 0
-43 -111 0
-51 -111 0
-54 -119 0
-41 -54 0
-33 -54 0
-54 -120 0
-41 -119 0
-33 -119 0
-119 -120 0
-33 -41 0
-41 -120 0
-33 -120 0
-56 -82 0
-56 -106 0
-56 -97 0
-56 -100 0
-82 -106 0
-82 -97 0
-82 -100 0
-97 -106 0
-100 -106 0
-97 -100 0
-47 -80 0
-16 -80 0
-20 -80 0
-52 -80 0
-16 -47 0
-20 -47 0
-47 -52 0
-16 -20 0
-16 -52 0
-20 -52 0
-11 -73 0
-26 -73 0
-66 -73 0
-73 -115 0
-11 -26 0
-11 -66 0
-11 -115 0
-26 -66 0
-26 -115 0
-66 -115 0
-84 -104 0
-104 -105 0
-104 -108 0
-102 -104 0
-84 -105 0
-84 -108 0
-84 -102 0
-105 -108 0
-102 -105 0
-102 -108 0
-54 -56 0
-54 -80 0
-54 -73 0
-54 -104 0
-56 -80 0
-56 -73 0
-56 -104 0
-73 -80 0
-80 -104 0
-73 -104 0
-82 -119 0
-47 -119 0
-11 -119 0
-84 -119 0
-47 -82 0
-11 -82 0
-82 -84 0
-11 -47 0
-47 -84 0
-11 -84 0
-41 -106 0
-16 -41 0
-26 -41 0
-41 -105 0
-16 -106 0
-26 -106 0
-105 -106 0
-16 -26 0
-16 -105 0
-26 -105 0
-33 -97 0
-20 -33 0
-33 -66 0
-33 -108 0
-20 -97 0
-66 -97 0
-97 -108 0
-20 -66 0
-20 -108 0
-66 -108 0
-100 -120 0
-52 -120 0
-115 -120 0
-102 -120 0
-52 -100 0
-100 -115 0
-100 -102 0
-52 -115 0
-52 -102 0
-102 -115 0
-44 -122 0
-59 -122 0
-122 -123 0
-44 -59 0
-44 -123 0
-59 -123 0
-70 -85 0
-85 -129 0
-50 -85 0
-70 -129 0
-50 -70 0
-50 -129 0
-12 -124 0
-12 -28 0
-12 -53 0
-28 -124 0
-53 -124 0
-28 -53 0
-83 -125 0
-83 -107 0
-83 -101 0
-107 -125 0
-101 -125 0
-101 -107 0
-85 -122 0
-12 -122 0
-83 -122 0
-12 -85 0
-83 -85 0
-12 -83 0
-44 -70 0
-44 -124 0
-44 -125 0
-70 -124 0
-70 -125 0
-124 -125 0
-59 -129 0
-28 -59 0
-59 -107 0
-28 -129 0
-107 -129 0
-28 -107 0
-50 -123 0
-53 -123 0
-101 -123 0
-50 -53 0
-50 -101 0
-53 -101 0
-14 -131 0
-27 -131 0
-126 -131 0
-65 -131 0
-14 -27 0
-14 -126 0
-14 -65 0
-27 -126 0
-27 -65 0
-65 -126 0
-32 -68 0
-32 -127 0
-30 -32 0
-32 -42 0
-68 -127 0
-30 -68 0
-42 -68 0
-30 -127 0
-42 -127 0
-30 -42 0
-63 -121 0
-58 -63 0
-48 -63 0
-63 -128 0
-58 -121 0
-48 -121 0
-121 -128 0
-48 -58 0
-58 -128 0
-48 -128 0
-81 -86 0
-81 -130 0
-81 -94 0
-81 -98 0
-86 -130 0
-86 -94 0
-86 -98 0
-94 -130 0
-98 -130 0
-94 -98 0
-37 -88 0
-37 -57 0
-37 -67 0
-37 -109 0
-57 -88 0
-67 -88 0
-88 -109 0
-57 -67 0
-57 -109 0
-67 -109 0
-32 -131 0
-63 -131 0
-81 -131 0
-37 -131 0
-32 -63 0
-32 -81 0
-32 -37 0
-63 -81 0
-37 -63 0
-37 -81 0
-14 -68 0
-14 -121 0
-14 -86 0
-14 -88 0
-68 -121 0
-68 -86 0
-68 -88 0
-86 -121 0
-88 -121 0
-86 -88 0
-27 -127 0
-27 -58 0
-27 -130 0
-27 -57 0
-58 -127 0
-127 -130 0
-57 -127 0
-58 -130 0
-57 -58 0
-57 -130 0
-30 -126 0
-48 -126 0
-94 -126 0
-67 -126 0
-30 -48 0
-30 -94 0
-30 -67 0
-48 -94 0
-48 -67 0
-67 -94 0
-42 -65 0
-65 -128 0
-65 -98 0
-65 -109 0
-42 -128 0
-42 -98 0
-42 -109 0
-98 -128 0
-109 -128 0
-98 -109 0
-31 -62 0
-34 -62 0
-31 -34 0
-13 -132 0
-18 -132 0
-13 -18 0
-36 -87 0
-36 -133 0
-87 -133 0
-62 -132 0
-36 -62 0
-36 -132 0
-13 -31 0
-31 -87 0
-13 -87 0
-18 -34 0
-34 -133 0
-18 -133 0
-55 -99 0
-99 -134 0
-55 -134 0
-19 -49 0
-17 -49 0
-17 -19 0
-22 -39 0
-22 -78 0
-39 -78 0
-49 -99 0
-22 -99 0
-22 -49 0
-19 -55 0
-39 -55 0
-19 -39 0
-17 -134 0
-78 -134 0
-17 -78 0
-35 -89 0
-35 -95 0
-35 -110 0
-35 -75 0
-89 -95 0
-89 -110 0
-75 -89 0
-95 -110 0
-75 -95 0
-75 -110 0
-7 -45 0
-25 -45 0
-21 -45 0
-38 -45 0
-7 -25 0
-7 -21 0
-7 -38 0
-21 -25 0
-25 -38 0
-21 -38 0
-6 -29 0
-5 -6 0
-6 -15 0
-4 -6 0
-5 -29 0
-15 -29 0
-4 -29 0
-5 -15 0
-4 -5 0
-4 -15 0
-3 -8 0
-3 -24 0
-2 -3 0
-3 -77 0
-8 -24 0
-2 -8 0
-8 -77 0
-2 -24 0
-24 -77 0
-2 -77 0
-64 -91 0
-1 -64 0
-60 -64 0
-64 -112 0
-1 -91 0
-60 -91 0
-91 -112 0
-1 -60 0
-1 -112 0
-60 -112 0
-35 -45 0
-6 -35 0
-3 -35 0
-35 -64 0
-6 -45 0
-3 -45 0
-45 -64 0
-3 -6 0
-6 -64 0
-3 -64 0
-7 -89 0
-29 -89 0
-8 -89 0
-89 -91 0
-7 -29 0
-7 -8 0
-7 -91 0
-8 -29 0
-29 -91 0
-8 -91 0
-25 -95 0
-5 -95 0
-24 -95 0
-1 -95 0
-5 -25 0
-24 -25 0
-1 -25 0
-5 -24 0
-1 -5 0
-1 -24 0
-21 -110 0
-15 -110 0
-2 -110 0
-60 -110 0
-15 -21 0
-2 -21 0
-21 -60 0
-2 -15 0
-15 -60 0
-2 -60 0
-38 -75 0
-4 -75 0
-75 -77 0
-75 -112 0
-4 -38 0
-38 -77 0
-38 -112 0
-4 -77 0
-4 -112 0
-77 -112 0
